sea
1.0
  11.1182643190 0.0000000000 0.0000000000
  0.0000000000 11.1343939338 0.0000000000
  0.0000000000 0.0000000000 5.7635664800
  Cs  Pb  Cl
  4  4  12
Direct
     0.000000000    0.994988880    0.500000000
     0.500000000    0.989793700    0.500000000
     0.500000000    0.494988880    0.500000000
     0.000000000    0.489793700    0.500000000
     0.250640355    0.242790425    0.000000000
     0.249359645    0.742790425    0.000000000
     0.750640355    0.742790425    0.000000000
     0.749359645    0.242790425    0.000000000
     0.191351020    0.493236080    0.000000000
     0.248947345    0.740660745    0.500000000
     0.251052655    0.240660745    0.500000000
     0.000000000    0.804609170    0.000000000
     0.500000000    0.685230760    0.000000000
     0.308648980    0.993236080    0.000000000
     0.691351020    0.993236080    0.000000000
     0.748947345    0.240660745    0.500000000
     0.751052655    0.740660745    0.500000000
     0.500000000    0.304609170    0.000000000
     0.000000000    0.185230760    0.000000000
     0.808648980    0.493236080    0.000000000
